c CNF file corresponding to a (partial) station packing problem.
p cnf 6267 229
1 2 3 4 5 6 7 8 9 10 11 12 13 14 0
-1 -2 0
-1 -3 0
-1 -4 0
-1 -5 0
-1 -6 0
-1 -7 0
-1 -8 0
-1 -9 0
-1 -10 0
-1 -11 0
-1 -12 0
-1 -13 0
-1 -14 0
-2 -3 0
-2 -4 0
-2 -5 0
-2 -6 0
-2 -7 0
-2 -8 0
-2 -9 0
-2 -10 0
-2 -11 0
-2 -12 0
-2 -13 0
-2 -14 0
-3 -4 0
-3 -5 0
-3 -6 0
-3 -7 0
-3 -8 0
-3 -9 0
-3 -10 0
-3 -11 0
-3 -12 0
-3 -13 0
-3 -14 0
-4 -5 0
-4 -6 0
-4 -7 0
-4 -8 0
-4 -9 0
-4 -10 0
-4 -11 0
-4 -12 0
-4 -13 0
-4 -14 0
-5 -6 0
-5 -7 0
-5 -8 0
-5 -9 0
-5 -10 0
-5 -11 0
-5 -12 0
-5 -13 0
-5 -14 0
-6 -7 0
-6 -8 0
-6 -9 0
-6 -10 0
-6 -11 0
-6 -12 0
-6 -13 0
-6 -14 0
-7 -8 0
-7 -9 0
-7 -10 0
-7 -11 0
-7 -12 0
-7 -13 0
-7 -14 0
-8 -9 0
-8 -10 0
-8 -11 0
-8 -12 0
-8 -13 0
-8 -14 0
-9 -10 0
-9 -11 0
-9 -12 0
-9 -13 0
-9 -14 0
-10 -11 0
-10 -12 0
-10 -13 0
-10 -14 0
-11 -12 0
-11 -13 0
-11 -14 0
-12 -13 0
-12 -14 0
-13 -14 0
6251 6252 6253 6254 6255 6256 6257 6258 6259 6260 6261 6262 6263 6264 6265 6266 6267 0
-6251 -6252 0
-6251 -6253 0
-6251 -6254 0
-6251 -6255 0
-6251 -6256 0
-6251 -6257 0
-6251 -6258 0
-6251 -6259 0
-6251 -6260 0
-6251 -6261 0
-6251 -6262 0
-6251 -6263 0
-6251 -6264 0
-6251 -6265 0
-6251 -6266 0
-6251 -6267 0
-6252 -6253 0
-6252 -6254 0
-6252 -6255 0
-6252 -6256 0
-6252 -6257 0
-6252 -6258 0
-6252 -6259 0
-6252 -6260 0
-6252 -6261 0
-6252 -6262 0
-6252 -6263 0
-6252 -6264 0
-6252 -6265 0
-6252 -6266 0
-6252 -6267 0
-6253 -6254 0
-6253 -6255 0
-6253 -6256 0
-6253 -6257 0
-6253 -6258 0
-6253 -6259 0
-6253 -6260 0
-6253 -6261 0
-6253 -6262 0
-6253 -6263 0
-6253 -6264 0
-6253 -6265 0
-6253 -6266 0
-6253 -6267 0
-6254 -6255 0
-6254 -6256 0
-6254 -6257 0
-6254 -6258 0
-6254 -6259 0
-6254 -6260 0
-6254 -6261 0
-6254 -6262 0
-6254 -6263 0
-6254 -6264 0
-6254 -6265 0
-6254 -6266 0
-6254 -6267 0
-6255 -6256 0
-6255 -6257 0
-6255 -6258 0
-6255 -6259 0
-6255 -6260 0
-6255 -6261 0
-6255 -6262 0
-6255 -6263 0
-6255 -6264 0
-6255 -6265 0
-6255 -6266 0
-6255 -6267 0
-6256 -6257 0
-6256 -6258 0
-6256 -6259 0
-6256 -6260 0
-6256 -6261 0
-6256 -6262 0
-6256 -6263 0
-6256 -6264 0
-6256 -6265 0
-6256 -6266 0
-6256 -6267 0
-6257 -6258 0
-6257 -6259 0
-6257 -6260 0
-6257 -6261 0
-6257 -6262 0
-6257 -6263 0
-6257 -6264 0
-6257 -6265 0
-6257 -6266 0
-6257 -6267 0
-6258 -6259 0
-6258 -6260 0
-6258 -6261 0
-6258 -6262 0
-6258 -6263 0
-6258 -6264 0
-6258 -6265 0
-6258 -6266 0
-6258 -6267 0
-6259 -6260 0
-6259 -6261 0
-6259 -6262 0
-6259 -6263 0
-6259 -6264 0
-6259 -6265 0
-6259 -6266 0
-6259 -6267 0
-6260 -6261 0
-6260 -6262 0
-6260 -6263 0
-6260 -6264 0
-6260 -6265 0
-6260 -6266 0
-6260 -6267 0
-6261 -6262 0
-6261 -6263 0
-6261 -6264 0
-6261 -6265 0
-6261 -6266 0
-6261 -6267 0
-6262 -6263 0
-6262 -6264 0
-6262 -6265 0
-6262 -6266 0
-6262 -6267 0
-6263 -6264 0
-6263 -6265 0
-6263 -6266 0
-6263 -6267 0
-6264 -6265 0
-6264 -6266 0
-6264 -6267 0
-6265 -6266 0
-6265 -6267 0
-6266 -6267 0
